HUN,8,6,889
1,21,2,23,0,21,4,28,3,25,5,24
4,21,3,27,1,30,2,24,5,30,0,26
1,29,2,22,4,28,3,26,5,27,0,26
2,30,5,30,3,25,4,30,0,29,1,28
1,22,2,23,0,27,5,24,4,22,3,25
1,30,2,21,5,27,0,25,4,25,3,24
3,21,5,26,1,23,0,23,2,27,4,25
4,28,3,29,5,25,0,21,1,23,2,26
